solution status: time limit reached
objective value:                                    2
shell_i_$_34                                        1 	(obj:0)
shell_i_$_21                                        1 	(obj:0)
shell_j_$_21                                        1 	(obj:0)
shell_j_$_22                                        1 	(obj:0)
shell_i_$_58                                        1 	(obj:0)
shell_j_$_59                                        1 	(obj:0)
shell_i_$_61                                        1 	(obj:0)
shell_j_$_61                                        1 	(obj:0)
shell_i_$_66                                        1 	(obj:0)
shell_i_$_26                                        1 	(obj:0)
shell_i_$_14                                        1 	(obj:0)
shell_i_$_65                                        1 	(obj:0)
shell_j_$_23                                        1 	(obj:0)
shell_i_$_68                                        1 	(obj:0)
shell_i_$_27                                        1 	(obj:0)
shell_i_$_20                                        1 	(obj:0)
shell_i_$_24                                        1 	(obj:0)
shell_j_$_35                                        1 	(obj:0)
shell_i_$_12                                        1 	(obj:0)
shell_i_$_11                                        1 	(obj:0)
shell_j_$_60                                        1 	(obj:0)
shell_i_$_67                                        1 	(obj:0)
shell_j_$_13                                        1 	(obj:0)
shell_i_$_36                                        1 	(obj:0)
shell_i_$_33                                        1 	(obj:0)
shell_i_$_56                                        1 	(obj:0)
shell_j_$_56                                        1 	(obj:0)
shell_i_$_57                                        1 	(obj:0)
shell_j_$_57                                        1 	(obj:0)
shell_i_$_25                                        1 	(obj:0)
shell_j_$_25                                        1 	(obj:0)
x141                                                1 	(obj:1)
x185                                                1 	(obj:1)
$_23_z                                            -19 	(obj:0)
$_59_x                                              4 	(obj:0)
$_59_y                                              4 	(obj:0)
$_68_x                                              4 	(obj:0)
$_68_y                                              3 	(obj:0)
$_68_z                                            -18 	(obj:0)
$_59_z                                            -24 	(obj:0)
$_34_z                                            -16 	(obj:0)
$_27_x                                              4 	(obj:0)
$_27_y                                              1 	(obj:0)
$_27_z                                            -25 	(obj:0)
$_34_x                                              4 	(obj:0)
$_61_x                                              4 	(obj:0)
$_20_x                                              4 	(obj:0)
$_20_y                                              1 	(obj:0)
$_20_z                                            -24 	(obj:0)
$_61_y                                              4 	(obj:0)
$_61_z                                            -23 	(obj:0)
$_24_x                                              4 	(obj:0)
$_24_y                                              1 	(obj:0)
$_24_z                                            -14 	(obj:0)
$_22_x                                              3 	(obj:0)
$_22_y                                              4 	(obj:0)
$_35_y                                              4 	(obj:0)
$_35_z                                            -20 	(obj:0)
$_66_x                                              4 	(obj:0)
$_66_y                                              3 	(obj:0)
$_12_x                                              4 	(obj:0)
$_12_y                                              2 	(obj:0)
$_12_z                                            -22 	(obj:0)
$_66_z                                            -21 	(obj:0)
$_22_z                                            -20 	(obj:0)
$_11_x                                              4 	(obj:0)
$_11_y                                              1 	(obj:0)
$_11_z                                            -20 	(obj:0)
$_34_y                                              1 	(obj:0)
$_26_x                                              4 	(obj:0)
$_60_x                                              3 	(obj:0)
$_60_y                                              4 	(obj:0)
$_60_z                                            -22 	(obj:0)
$_26_z                                            -23 	(obj:0)
$_67_x                                              4 	(obj:0)
$_67_y                                              3 	(obj:0)
$_67_z                                            -19 	(obj:0)
$_21_x                                              4 	(obj:0)
$_58_x                                              4 	(obj:0)
$_13_x                                              4 	(obj:0)
$_13_y                                              4 	(obj:0)
$_13_z                                            -25 	(obj:0)
$_14_x                                              4 	(obj:0)
$_14_y                                              2 	(obj:0)
$_36_x                                              4 	(obj:0)
$_36_z                                            -19 	(obj:0)
$_14_z                                            -20 	(obj:0)
$_58_y                                              3 	(obj:0)
$_33_x                                              4 	(obj:0)
$_33_y                                             -1 	(obj:0)
$_33_z                                            -20 	(obj:0)
$_58_z                                            -24 	(obj:0)
$_65_x                                              4 	(obj:0)
$_56_x                                              4 	(obj:0)
$_56_y                                              4 	(obj:0)
$_56_z                                            -21 	(obj:0)
$_65_y                                              3 	(obj:0)
$_65_z                                            -20 	(obj:0)
$_57_x                                              4 	(obj:0)
$_57_y                                              4 	(obj:0)
$_57_z                                            -20 	(obj:0)
$_21_y                                              4 	(obj:0)
$_21_z                                            -16 	(obj:0)
$_25_x                                              4 	(obj:0)
$_25_y                                              4 	(obj:0)
$_25_z                                            -22 	(obj:0)
$_23_x                                              4 	(obj:0)
$_23_y                                              4 	(obj:0)
